4 
5  28 41 55 
6  04 19 26 34 41 46 51 56 
7  01 06 11 16 21 26 31 36 41 46 51 56 
8  01 06 11 16 21 26 31 36 41 46 53 
9  01 09 17 24 32 39 46 54 
10  01 09 16 24 31 39 46 54 
11  01 09 16 24 31 39 46 54 
12  01 09 16 24 31 39 46 54 
13  01 09 17 25 32 40 47 55 
14  02 09 17 25 32 40 46 54 
15  01 06 11 16 21 26 31 36 41 46 51 56 
16  01 06 11 16 21 26 31 36 41 46 51 56 
17  01 06 11 16 21 26 31 36 41 46 51 56 
18  01 06 11 16 21 26 31 36 41 50 56 
19  03 09 16 24 31 39 47 54 
20  01 09 16 24 31 38 46 54 
21  01 08 16 24 31 39 46 54 
22  01 10 25 42 56 
23  16 31 50 
0 
